(set-logic QF_S)
(declare-fun var0 () String)
(assert (RegexIn var0 (RegexConcat (RegexStar (RegexPlus (Str2Reg "000"))) (RegexConcat (RegexPlus (RegexStar (Str2Reg "1"))) (RegexConcat (RegexPlus (RegexStar (Str2Reg "22"))) (RegexConcat (RegexUnion (RegexStar (Str2Reg "33")) (RegexStar (Str2Reg "44"))) (RegexConcat (RegexUnion (RegexStar (Str2Reg "5")) (RegexStar (Str2Reg "66"))) (RegexConcat (RegexStar (RegexUnion (Str2Reg "777") (Str2Reg "888"))) (RegexConcat (RegexPlus (RegexUnion (Str2Reg "99") (Str2Reg "a"))) (RegexConcat (RegexPlus (RegexStar (Str2Reg "bbb"))) (RegexConcat (RegexUnion (RegexPlus (Str2Reg "ccc")) (RegexPlus (Str2Reg "dd"))) (RegexUnion (RegexStar (Str2Reg "eee")) (RegexStar (Str2Reg "ff"))))))))))))))
(assert (RegexIn var0 (RegexConcat (RegexPlus (RegexPlus (Str2Reg "00"))) (RegexConcat (RegexUnion (RegexPlus (Str2Reg "1")) (RegexPlus (Str2Reg "2"))) (RegexConcat (RegexUnion (RegexStar (Str2Reg "333")) (RegexStar (Str2Reg "444"))) (RegexConcat (RegexPlus (RegexUnion (Str2Reg "5") (Str2Reg "666"))) (RegexConcat (RegexPlus (RegexStar (Str2Reg "77"))) (RegexConcat (RegexStar (RegexPlus (Str2Reg "88"))) (RegexConcat (RegexUnion (RegexUnion (Str2Reg "99") (Str2Reg "aa")) (RegexUnion (Str2Reg "bb") (Str2Reg "ccc"))) (RegexConcat (RegexPlus (RegexStar (Str2Reg "ddd"))) (RegexConcat (RegexUnion (RegexUnion (Str2Reg "eee") (Str2Reg "f")) (RegexUnion (Str2Reg "gg") (Str2Reg "hh"))) (RegexStar (RegexStar (Str2Reg "iii"))))))))))))))
(assert (RegexIn var0 (RegexConcat (RegexStar (RegexStar (Str2Reg "0"))) (RegexConcat (RegexUnion (RegexUnion (Str2Reg "1") (Str2Reg "22")) (RegexUnion (Str2Reg "3") (Str2Reg "4"))) (RegexConcat (RegexPlus (RegexStar (Str2Reg "55"))) (RegexConcat (RegexStar (RegexStar (Str2Reg "6"))) (RegexConcat (RegexUnion (RegexPlus (Str2Reg "77")) (RegexPlus (Str2Reg "8"))) (RegexConcat (RegexStar (RegexUnion (Str2Reg "9") (Str2Reg "aaa"))) (RegexConcat (RegexStar (RegexStar (Str2Reg "bbb"))) (RegexConcat (RegexStar (RegexUnion (Str2Reg "c") (Str2Reg "ddd"))) (RegexConcat (RegexUnion (RegexPlus (Str2Reg "e")) (RegexPlus (Str2Reg "f"))) (RegexPlus (RegexUnion (Str2Reg "ggg") (Str2Reg "h"))))))))))))))
(assert (RegexIn var0 (RegexConcat (RegexPlus (RegexPlus (Str2Reg "0"))) (RegexConcat (RegexUnion (RegexUnion (Str2Reg "11") (Str2Reg "2")) (RegexUnion (Str2Reg "3") (Str2Reg "44"))) (RegexConcat (RegexUnion (RegexStar (Str2Reg "55")) (RegexStar (Str2Reg "666"))) (RegexConcat (RegexStar (RegexStar (Str2Reg "777"))) (RegexConcat (RegexStar (RegexStar (Str2Reg "8"))) (RegexConcat (RegexPlus (RegexPlus (Str2Reg "9"))) (RegexConcat (RegexPlus (RegexUnion (Str2Reg "aa") (Str2Reg "b"))) (RegexConcat (RegexPlus (RegexPlus (Str2Reg "cc"))) (RegexConcat (RegexPlus (RegexStar (Str2Reg "dd"))) (RegexPlus (RegexUnion (Str2Reg "ee") (Str2Reg "fff"))))))))))))))
(assert (RegexIn var0 (RegexConcat (RegexStar (RegexPlus (Str2Reg "00"))) (RegexConcat (RegexPlus (RegexStar (Str2Reg "11"))) (RegexConcat (RegexUnion (RegexUnion (Str2Reg "222") (Str2Reg "3")) (RegexUnion (Str2Reg "444") (Str2Reg "555"))) (RegexConcat (RegexPlus (RegexUnion (Str2Reg "6") (Str2Reg "77"))) (RegexConcat (RegexUnion (RegexStar (Str2Reg "88")) (RegexStar (Str2Reg "9"))) (RegexConcat (RegexPlus (RegexStar (Str2Reg "a"))) (RegexConcat (RegexStar (RegexStar (Str2Reg "b"))) (RegexConcat (RegexPlus (RegexPlus (Str2Reg "cc"))) (RegexConcat (RegexStar (RegexUnion (Str2Reg "dd") (Str2Reg "ee"))) (RegexUnion (RegexPlus (Str2Reg "ff")) (RegexPlus (Str2Reg "gg"))))))))))))))
(assert (RegexIn var0 (RegexConcat (RegexPlus (RegexUnion (Str2Reg "00") (Str2Reg "11"))) (RegexConcat (RegexPlus (RegexPlus (Str2Reg "222"))) (RegexConcat (RegexStar (RegexPlus (Str2Reg "33"))) (RegexConcat (RegexStar (RegexStar (Str2Reg "44"))) (RegexConcat (RegexPlus (RegexStar (Str2Reg "555"))) (RegexConcat (RegexUnion (RegexStar (Str2Reg "66")) (RegexStar (Str2Reg "77"))) (RegexConcat (RegexUnion (RegexStar (Str2Reg "88")) (RegexStar (Str2Reg "9"))) (RegexConcat (RegexUnion (RegexStar (Str2Reg "aaa")) (RegexStar (Str2Reg "bbb"))) (RegexConcat (RegexPlus (RegexStar (Str2Reg "c"))) (RegexUnion (RegexUnion (Str2Reg "ddd") (Str2Reg "e")) (RegexUnion (Str2Reg "f") (Str2Reg "ggg"))))))))))))))
(assert (RegexIn var0 (RegexConcat (RegexPlus (RegexPlus (Str2Reg "00"))) (RegexConcat (RegexPlus (RegexStar (Str2Reg "1"))) (RegexConcat (RegexStar (RegexPlus (Str2Reg "2"))) (RegexConcat (RegexStar (RegexStar (Str2Reg "333"))) (RegexConcat (RegexUnion (RegexStar (Str2Reg "4")) (RegexStar (Str2Reg "5"))) (RegexConcat (RegexPlus (RegexUnion (Str2Reg "6") (Str2Reg "77"))) (RegexConcat (RegexStar (RegexStar (Str2Reg "88"))) (RegexConcat (RegexStar (RegexUnion (Str2Reg "99") (Str2Reg "aaa"))) (RegexConcat (RegexPlus (RegexPlus (Str2Reg "b"))) (RegexStar (RegexUnion (Str2Reg "c") (Str2Reg "ddd"))))))))))))))
(check-sat)